32      4       
10      10      10      10      
0       0       0       0       0       10      2       4       5       6       7       10      15      16      20      31      
8       1       0       1       1       5       3       9       14      18      30      
4       3       1       0       3       6       8       13      23      25      26      28      
3       5       4       3       0       5       8       11      18      25      26      
8       6       0       5       5       4       11      18      24      27      
9       4       0       4       5       4       12      23      24      25      
3       7       3       0       4       6       21      22      23      25      27      30      
7       7       0       5       6       3       12      19      24      
4       5       6       0       4       3       12      24      27      
3       2       0       5       3       3       12      23      26      
4       9       0       5       4       1       12      
8       4       0       5       5       2       17      22      
7       0       5       5       2       2       22      29      
2       4       0       3       2       2       21      24      
4       2       0       3       3       2       21      28      
3       7       3       4       0       1       18      
5       1       2       5       0       1       21      
4       0       3       3       8       1       23      
10      4       0       2       4       1       21      
1       3       4       0       6       1       21      
8       3       5       0       3       1       32      
1       2       7       6       0       1       32      
7       0       6       1       2       1       32      
7       4       0       4       4       1       32      
2       5       0       6       7       1       32      
10      0       3       4       3       1       32      
8       0       2       3       3       1       32      
10      4       7       0       4       1       32      
2       0       4       4       8       1       32      
3       1       0       6       1       1       32      
10      3       3       4       0       1       32      
0       0       0       0       0       0       
